\ LP format - for model browsing. Use MPS format to capture full model detail.
Minimize
  0 x__4 + 0 b_1[0,0] + 0 b_1_2[0,0] + 0 b_1_3[0,0] + 0 b_1_6[0,0]
   + 0 b_1_7[0,0] + 0 b_1_9[0,0] + 0 b_1_10[0,0] + 0 b_1_11[0,0]
   + 0 b_13[0,0] + 0 b_1_14[0,0] + 0 b_1_15[0,0] + 0 b_1_17[0,0]
   + 0 b_1_18[0,0] + 0 b_1_19[0,0]
Subject To
 R0: b = 1
 R1: x__0 - 10000 b_1_4[0,0] >= -9995
 R2: x__0 - 10000 b_1_4[0,0] <= 4.9999
 R3: x__1 - 10000 b_1_4[0,1] >= -9995
 R4: x__1 - 10000 b_1_4[0,1] <= 4.9999
 R5: x__2 - 10000 b_1_4[0,2] >= -9995
 R6: x__2 - 10000 b_1_4[0,2] <= 4.9999
 R7: x__3 - 10000 b_1_4[0,3] >= -9995
 R8: x__3 - 10000 b_1_4[0,3] <= 4.9999
 R9: b_1_5[0,0] = 1
 R10: x__0 - 10000 b_1_8[0,0] >= -9995
 R11: x__0 - 10000 b_1_8[0,0] <= 4.9999
 R12: x__1 - 10000 b_1_8[0,1] >= -9995
 R13: x__1 - 10000 b_1_8[0,1] <= 4.9999
 R14: x__2 - 10000 b_1_8[0,2] >= -9995
 R15: x__2 - 10000 b_1_8[0,2] <= 4.9999
 R16: x__3 - 10000 b_1_8[0,3] >= -9995
 R17: x__3 - 10000 b_1_8[0,3] <= 4.9999
 R18: - y__1 - 10000 b_1_10[0,1] >= -10000.9999
 R19: - y__1 - 10000 b_1_10[0,1] <= -1
 R20: - y__2 - 10000 b_1_10[0,2] >= -10000.9999
 R21: - y__2 - 10000 b_1_10[0,2] <= -1
 R22: - y__3 - 10000 b_1_10[0,3] >= -10000.9999
 R23: - y__3 - 10000 b_1_10[0,3] <= -1
 R24: - y__4 - 10000 b_1_10[0,4] >= -10000.9999
 R25: - y__4 - 10000 b_1_10[0,4] <= -1
 R26: y__0 - 10000 b_1_12[0,0] >= -9999.999900000001
 R27: y__0 - 10000 b_1_12[0,0] <= 0
 R28: y__1 - 10000 b_1_12[0,1] >= -9999.999900000001
 R29: y__1 - 10000 b_1_12[0,1] <= 0
 R30: y__2 - 10000 b_1_12[0,2] >= -9999.999900000001
 R31: y__2 - 10000 b_1_12[0,2] <= 0
 R32: y__3 - 10000 b_1_12[0,3] >= -9999.999900000001
 R33: y__3 - 10000 b_1_12[0,3] <= 0
 R34: y__4 - 10000 b_1_12[0,4] >= -9999.999900000001
 R35: y__4 - 10000 b_1_12[0,4] <= 0
 R36: - x__0 - 10000 b_1_16[0,0] >= -10004.9999
 R37: - x__0 - 10000 b_1_16[0,0] <= -5
 R38: - x__1 - 10000 b_1_16[0,1] >= -10004.9999
 R39: - x__1 - 10000 b_1_16[0,1] <= -5
 R40: - x__2 - 10000 b_1_16[0,2] >= -10004.9999
 R41: - x__2 - 10000 b_1_16[0,2] <= -5
 R42: - x__3 - 10000 b_1_16[0,3] >= -10004.9999
 R43: - x__3 - 10000 b_1_16[0,3] <= -5
 R44: y__1 - 10000 b_1_18[0,1] >= -9999
 R45: y__1 - 10000 b_1_18[0,1] <= 0.9999
 R46: y__2 - 10000 b_1_18[0,2] >= -9999
 R47: y__2 - 10000 b_1_18[0,2] <= 0.9999
 R48: y__3 - 10000 b_1_18[0,3] >= -9999
 R49: y__3 - 10000 b_1_18[0,3] <= 0.9999
 R50: y__4 - 10000 b_1_18[0,4] >= -9999
 R51: y__4 - 10000 b_1_18[0,4] <= 0.9999
 R52: - y__0 - 10000 b_1_20[0,0] >= -10000
 R53: - y__0 - 10000 b_1_20[0,0] <= -0.0001
 R54: - y__1 - 10000 b_1_20[0,1] >= -10000
 R55: - y__1 - 10000 b_1_20[0,1] <= -0.0001
 R56: - y__2 - 10000 b_1_20[0,2] >= -10000
 R57: - y__2 - 10000 b_1_20[0,2] <= -0.0001
 R58: - y__3 - 10000 b_1_20[0,3] >= -10000
 R59: - y__3 - 10000 b_1_20[0,3] <= -0.0001
 R60: - y__4 - 10000 b_1_20[0,4] >= -10000
 R61: - y__4 - 10000 b_1_20[0,4] <= -0.0001
Bounds
 -10000 <= x__0 <= 10000
 -10000 <= x__1 <= 10000
 -10000 <= x__2 <= 10000
 -10000 <= x__3 <= 10000
 -10000 <= x__4 <= 10000
 -10000 <= y__0 <= 10000
 -10000 <= y__1 <= 10000
 -10000 <= y__2 <= 10000
 -10000 <= y__3 <= 10000
 -10000 <= y__4 <= 10000
Binaries
 b b_1[0,0] b_1_2[0,0] b_1_3[0,0] b_1_4[0,0] b_1_4[0,1] b_1_4[0,2]
 b_1_4[0,3] b_1_5[0,0] b_1_6[0,0] b_1_7[0,0] b_1_8[0,0] b_1_8[0,1]
 b_1_8[0,2] b_1_8[0,3] b_1_9[0,0] b_1_10[0,0] b_1_10[0,1] b_1_10[0,2]
 b_1_10[0,3] b_1_10[0,4] b_1_11[0,0] b_1_12[0,0] b_1_12[0,1] b_1_12[0,2]
 b_1_12[0,3] b_1_12[0,4] b_13[0,0] b_1_14[0,0] b_1_15[0,0] b_1_16[0,0]
 b_1_16[0,1] b_1_16[0,2] b_1_16[0,3] b_1_17[0,0] b_1_18[0,0] b_1_18[0,1]
 b_1_18[0,2] b_1_18[0,3] b_1_18[0,4] b_1_19[0,0] b_1_20[0,0] b_1_20[0,1]
 b_1_20[0,2] b_1_20[0,3] b_1_20[0,4]
General Constraints
 GC0: b_1_3[0,0] = AND ( b_1_4[0,0] , b_1_4[0,1] , b_1_4[0,2] , b_1_4[0,3] )
 GC1: b_1_2[0,0] = AND ( b_1_3[0,0] , b_1_5[0,0] )
 GC2: b_1_7[0,0] = AND ( b_1_8[0,0] , b_1_8[0,1] , b_1_8[0,2] , b_1_8[0,3] )
 GC3: b_1_9[0,0] = AND ( b_1_10[0,1] , b_1_10[0,2] , b_1_10[0,3] ,
   b_1_10[0,4] )
 GC4: b_1_6[0,0] = AND ( b_1_7[0,0] , b_1_9[0,0] )
 GC5: b_1_11[0,0] = OR ( b_1_12[0,0] , b_1_12[0,1] , b_1_12[0,2] ,
   b_1_12[0,3] , b_1_12[0,4] )
 GC6: b_1[0,0] = OR ( b_1_2[0,0] , b_1_6[0,0] , b_1_11[0,0] )
 GC7: b_1_15[0,0] = OR ( b_1_16[0,0] , b_1_16[0,1] , b_1_16[0,2] ,
   b_1_16[0,3] )
 GC8: b_1_17[0,0] = OR ( b_1_18[0,1] , b_1_18[0,2] , b_1_18[0,3] ,
   b_1_18[0,4] )
 GC9: b_1_14[0,0] = OR ( b_1_15[0,0] , b_1_17[0,0] )
 GC10: b_1_19[0,0] = AND ( b_1_20[0,0] , b_1_20[0,1] , b_1_20[0,2] ,
   b_1_20[0,3] , b_1_20[0,4] )
 GC11: b_13[0,0] = AND ( b_1_14[0,0] , b_1_19[0,0] )
 GC12: b = AND ( b_1[0,0] , b_13[0,0] )
End
